solution status: optimal solution found
objective value:                     102373.980908148
d11(0,0)                                            1 	(obj:0)
d11(2,3)                                            1 	(obj:0)
d11(2,5)                                            1 	(obj:0)
d11(3,7)                                            1 	(obj:0)
d11(3,8)                                            1 	(obj:0)
d11(3,9)                                            1 	(obj:0)
d11(3,10)                                           1 	(obj:0)
d11(3,11)                                           1 	(obj:0)
d11(3,12)                                           1 	(obj:0)
d11(3,13)                                           1 	(obj:0)
d11(3,14)                                           1 	(obj:0)
d12(1,2)                                            1 	(obj:0)
d12(2,4)                                            1 	(obj:0)
d12(2,6)                                            1 	(obj:0)
d21(3,7)                                            1 	(obj:0)
d21(3,9)                                            1 	(obj:0)
d21(3,11)                                           1 	(obj:0)
WB(2)                                 642.24543898669 	(obj:0)
y2(1,2)                              1385.48851144895 	(obj:0)
y2(2,4)                              1385.48851144891 	(obj:0)
y2(2,6)                              1385.48851144891 	(obj:0)
STE(1,1)                                         4347 	(obj:0)
STE(0,0)                                         4725 	(obj:0)
STE(1,2)                             5663.21408587651 	(obj:0)
STE(2,3)                                         3969 	(obj:0)
STE(2,4)                             5285.21408587647 	(obj:0)
STE(2,5)                             5285.21408587651 	(obj:0)
STE(2,6)                             6601.42817175297 	(obj:0)
STE(3,7)                             1176.75010111118 	(obj:0)
STE(3,8)                                         2835 	(obj:0)
STE(3,9)                             2492.96418698765 	(obj:0)
STE(3,10)                            4151.21408587647 	(obj:0)
STE(3,11)                            2492.96418698769 	(obj:0)
STE(3,12)                            4151.21408587648 	(obj:0)
STE(3,13)                            3809.17827286416 	(obj:0)
STE(3,14)                            5467.42817175301 	(obj:0)
AVE(2)                               3315.65537776224 	(obj:0)
y1(3,7)                              2172.82490899994 	(obj:0)
y1(3,8)                                         680.4 	(obj:0)
y1(3,9)                              2172.82490899994 	(obj:0)
y1(3,10)                             680.400000000001 	(obj:0)
y1(3,11)                             2172.82490899994 	(obj:0)
y1(3,12)                             680.400000000025 	(obj:0)
y1(3,13)                             2172.82490899994 	(obj:0)
y1(3,14)                             680.399999999964 	(obj:0)
AVE(3)                               3315.65799770399 	(obj:0)
WB(1)                                3248.33172520918 	(obj:0)
WG(2)                                2673.40993877555 	(obj:10)
WG(3)                                3315.65799770399 	(obj:10)
BG(1)                                2673.40993877551 	(obj:10)
BG(3)                                1574.92021556129 	(obj:10)
AVE(1)                               3248.33172520918 	(obj:0)
